rows = 12;
cols = 12;
mines_count = 15;
not_mines = array2d(1..rows, 1..cols, [0,0,0,0,0,0,0,0,0,0,0,0,0,0,0,0,0,0,0,0,0,0,0,0,0,0,0,0,0,0,0,0,0,0,0,0,0,0,0,0,0,0,0,0,0,0,0,0,0,0,0,0,0,0,0,0,0,0,0,0,0,0,0,0,0,0,0,0,0,0,0,0,0,0,0,0,0,0,0,0,0,0,0,0,0,0,0,0,0,0,0,0,0,0,0,0,0,0,0,0,0,0,0,0,0,0,0,0,0,0,0,0,0,0,0,0,0,0,0,0,0,0,0,0,0,0,0,0,0,0,0,0,0,0,0,0,0,0,0,0,0,0,0,0,]);
fields = array2d(1..rows, 1..cols, [-1,-1,-1,-1,-1,-1,-1,-1,-1,-1,-1,-1,-1,-1,2,1,1,2,-1,-1,-1,-1,-1,-1,-1,-1,1,0,0,1,1,4,-1,-1,-1,-1,-1,-1,1,0,0,0,0,2,-1,-1,-1,-1,-1,-1,3,1,0,0,0,1,1,2,-1,-1,-1,-1,-1,1,0,0,0,0,0,1,-1,-1,-1,-1,2,1,0,0,0,0,1,2,-1,-1,-1,-1,1,0,0,0,0,0,2,-1,-1,-1,-1,-1,1,0,1,1,2,1,4,-1,-1,-1,-1,-1,1,1,2,-1,-1,-1,-1,-1,-1,-1,-1,-1,-1,-1,-1,-1,-1,-1,-1,-1,-1,-1,-1,-1,-1,-1,-1,-1,-1,-1,-1,-1,-1,-1,]);
